20
99.0
0 19 6.27 4.79
1 18 3.41 5.84
2 17 5.01 4.16
3 16 6.38 5.25
4 15 3.73 4.38
5 14 5.31 5.73
6 13 6.25 4.9
7 12 6.24 4.53
8 11 3.61 4.1
9 10 6.19 4.76
10 9 5.61 5.08
11 8 4.1 5.79
12 7 4.29 5.59
13 6 5.0 5.07
14 5 4.96 4.83
15 4 6.86 4.75
16 3 5.89 3.14
17 2 0.41 3.66
18 1 9.27 9.93
